Program PWSCF v.6.1 starts on 27Jan2023 at  6: 5: 6

     Current dimensions of program PWSCF are:
     Max number of different atomic species (ntypx) = 10
     Max number of k-points (npk) =  40000
     Max angular momentum in pseudopotentials (lmaxx) =  3

     Subspace diagonalization in iterative solution of the eigenvalue problem:
     a serial algorithm will be used

     Title:
     Project3.1 - Si density and lattice constant(Optimize)

     bravais-lattice index     =            2
     lattice parameter (alat)  =      14.0000  a.u.
     unit-cell volume          =     685.9997 (a.u.)^3
     number of atoms/cell      =            2
     number of atomic types    =            1
     number of electrons       =         8.00
     number of Kohn-Sham states=            8
     kinetic-energy cutoff     =      30.0000  Ry
     charge density cutoff     =     270.0000  Ry
     convergence threshold     =      1.0E-07
     mixing beta               =       0.7000
     number of iterations used =            8  plain     mixing
     Exchange-correlation      = PBE ( 1  4  3  4 0 0)
     nstep                     =          100

     celldm(1)=  13.999998  celldm(2)=   0.000000  celldm(3)=   0.000000
     celldm(4)=   0.000000  celldm(5)=   0.000000  celldm(6)=   0.000000

     crystal axes: (cart. coord. in units of alat)
               a(1) = (  -0.500000   0.000000   0.500000 )
               a(2) = (   0.000000   0.500000   0.500000 )
               a(3) = (  -0.500000   0.500000   0.000000 )

     reciprocal axes: (cart. coord. in units 2 pi/alat)
               b(1) = ( -1.000000 -1.000000  1.000000 )
               b(2) = (  1.000000  1.000000  1.000000 )
               b(3) = ( -1.000000  1.000000 -1.000000 )

     PseudoPot. # 1 for Si read from file:
     C:\Users\muhay\.burai\.pseudopot/Si.pbe-n-rrkjus_psl.1.0.0.UPF
     MD5 check sum: 56671f82560c68743c116fe4c72cdc4c
     Pseudo is Ultrasoft + core correction, Zval =  4.0
     Generated using "atomic" code by A. Dal Corso  v.5.1.2
     Using radial grid of 1141 points,  6 beta functions with:
                l(1) =   0
                l(2) =   0
                l(3) =   1
                l(4) =   1
                l(5) =   2
                l(6) =   2
     Q(r) pseudized with 0 coefficients

     atomic species   valence    mass     pseudopotential
        Si             4.00    28.08550     Si( 1.00)

     24 Sym. Ops. (no inversion) found
          (note: 24 additional sym.ops. were found but ignored
           their fractional translations are incommensurate with FFT grid)

   Cartesian axes

     site n.     atom                  positions (alat units)
         1           Si  tau(   1) = (   0.0000000   0.0000000   0.0000000  )
         2           Si  tau(   2) = (   0.2500000   0.2500000   0.2500000  )

     number of k points=     8  gaussian smearing, width (Ry)=  0.0100
                       cart. coord. in units 2pi/alat
        k(    1) = (   0.0000000   0.0000000   0.0000000), wk =   0.0312500
        k(    2) = (  -0.2500000   0.2500000  -0.2500000), wk =   0.2500000
        k(    3) = (   0.5000000  -0.5000000   0.5000000), wk =   0.1250000
        k(    4) = (   0.0000000   0.5000000   0.0000000), wk =   0.1875000
        k(    5) = (   0.7500000  -0.2500000   0.7500000), wk =   0.7500000
        k(    6) = (   0.5000000   0.0000000   0.5000000), wk =   0.3750000
        k(    7) = (   0.0000000  -1.0000000   0.0000000), wk =   0.0937500
        k(    8) = (  -0.5000000  -1.0000000   0.0000000), wk =   0.1875000

     Initial potential from superposition of free atoms

     starting charge    7.99888, renormalised to    8.00000
     Starting wfc are    8 randomized atomic wfcs

     Self-consistent Calculation

     iteration #  1     ecut=    30.00 Ry     beta=0.70
     Davidson diagonalization with overlap
     ethr =  1.00E-02,  avg # of iterations =  2.2

     Threshold (ethr) on eigenvalues was too large:
     Diagonalizing with lowered threshold

     Davidson diagonalization with overlap
     ethr =  1.35E-04,  avg # of iterations =  2.8

     total energy              =     -22.52237094 Ry
     Harris-Foulkes estimate   =     -22.52186675 Ry
     estimated scf accuracy    <       0.01175871 Ry

[...]

     End of self-consistent calculation

          k = 0.0000 0.0000 0.0000 (  1917 PWs)   bands (ev):

    -8.0457  -4.0404  -0.2379  -0.2379  -0.2379   1.5339   1.5339   1.5339

          k =-0.2500 0.2500-0.2500 (  1910 PWs)   bands (ev):

[...]

     the Fermi energy is    -0.4808 ev

!    total energy              =     -22.52273429 Ry
     Harris-Foulkes estimate   =     -22.52273433 Ry
     estimated scf accuracy    <       0.00000009 Ry

     The total energy is the sum of the following terms:

     one-electron contribution =      -0.80934287 Ry
     hartree contribution      =       2.15474708 Ry
     xc contribution           =     -11.55352230 Ry
     ewald contribution        =     -12.31268277 Ry
     smearing contrib. (-TS)   =      -0.00193343 Ry

     convergence has been achieved in   5 iterations

     Forces acting on atoms (cartesian axes, Ry/au):

     atom    1 type  1   force =     0.00000000    0.00000000   -0.00000000
     atom    2 type  1   force =     0.00000000    0.00000000    0.00000000

     Total force =     0.000000     Total SCF correction =     0.000000

     Computing stress (Cartesian axis) and pressure

          total   stress  (Ry/bohr**3)                   (kbar)     P=  -87.70
  -0.00059618   0.00000000   0.00000000        -87.70      0.00      0.00
   0.00000000  -0.00059618   0.00000000          0.00    -87.70      0.00
   0.00000000  -0.00000000  -0.00059618          0.00     -0.00    -87.70

     BFGS Geometry Optimization

     number of scf cycles    =   1
     number of bfgs steps    =   0

     enthalpy new            =     -22.5227342942 Ry

     new trust radius        =       0.0780741685 bohr
     new conv_thr            =       0.0000001000 Ry

     new unit-cell volume =    655.78133 a.u.^3 (    97.17677 Ang^3 )
     density =      0.95984 g/cm^3

CELL_PARAMETERS (alat= 13.99999826)
  -0.492547785  -0.000000000   0.492547785
   0.000000000   0.492547785   0.492547785
  -0.492547785   0.492547785  -0.000000000

ATOMIC_POSITIONS (alat)
Si       0.000000000   0.000000000   0.000000000    0   0   0
Si       0.246273892   0.246273892   0.246273892    0   0   0

     Writing output data file espresso.save
     NEW-OLD atomic charge density approx. for the potential
     extrapolated charge    7.63141, renormalised to    8.00000

[...]

     enthalpy old            =     -22.5227342942 Ry
     enthalpy new            =     -22.5412571012 Ry

     CASE: enthalpy_new < enthalpy_old

     WARNING: bfgs curvature condition failed, Theta= 0.780
     new trust radius        =       0.1162352381 bohr
     new conv_thr            =       0.0000000010 Ry

[...]

     WARNING: bfgs curvature condition failed, Theta= 0.599
     uphill step: resetting bfgs history

[...]

     WARNING: bfgs curvature condition failed, Theta= 0.552
     uphill step: resetting bfgs history

[...]

     WARNING: bfgs curvature condition failed, Theta= 0.807
     new trust radius        =       0.1413261221 bohr
     new conv_thr            =       0.0000000010 Ry

[...]

     number of scf cycles    =  12
     number of bfgs steps    =  11

     enthalpy old            =     -22.8263140219 Ry
     enthalpy new            =     -22.8266567068 Ry

     CASE: enthalpy_new < enthalpy_old

     new trust radius        =       0.0019032334 bohr
     new conv_thr            =       0.0000000010 Ry

     new unit-cell volume =    277.76363 a.u.^3 (    41.16032 Ang^3 )
     density =      2.26612 g/cm^3

[...]

ATOMIC_POSITIONS (alat)
Si       0.000000000   0.000000000   0.000000000    0   0   0
Si       0.184951199   0.184951199   0.184951199    0   0   0

     Writing output data file espresso.save
     NEW-OLD atomic charge density approx. for the potential
     extrapolated charge    7.98629, renormalised to    8.00000

[...]

     Threshold (ethr) on eigenvalues was too large:
     Diagonalizing with lowered threshold

     Davidson diagonalization with overlap
     ethr =  1.34E-08,  avg # of iterations =  1.1

[...]

     bfgs converged in  13 scf cycles and  12 bfgs steps
     (criteria: energy <  1.0E-05 Ry, force <  1.0E-04Ry/Bohr, cell <  5.0E-01kbar)

     End of BFGS Geometry Optimization

     Final enthalpy =     -22.8266589911 Ry
Begin final coordinates
     new unit-cell volume =    277.76363 a.u.^3 (    41.16032 Ang^3 )
     density =      2.26612 g/cm^3

CELL_PARAMETERS (alat= 13.99999826)
  -0.369902398  -0.000000000   0.369902398
   0.000000000   0.369902398   0.369902398
  -0.369902398   0.369902398   0.000000000

ATOMIC_POSITIONS (alat)
Si       0.000000000   0.000000000   0.000000000    0   0   0
Si       0.184951199   0.184951199   0.184951199    0   0   0
End final coordinates

     A final scf calculation at the relaxed structure.
     The G-vectors are recalculated for the final unit cell
     Results may differ from those at the preceding step.

     Title:
     Project3.1 - Si density and lattice constant(Optimize)

     bravais-lattice index     =            2
     lattice parameter (alat)  =      14.0000  a.u.
     unit-cell volume          =     277.7636 (a.u.)^3
     number of atoms/cell      =            2
     number of atomic types    =            1
     number of electrons       =         8.00
     number of Kohn-Sham states=            8
     kinetic-energy cutoff     =      30.0000  Ry
     charge density cutoff     =     270.0000  Ry
     convergence threshold     =      1.0E-09
     mixing beta               =       0.7000
     number of iterations used =            8  plain     mixing
     Exchange-correlation      = PBE ( 1  4  3  4 0 0)

     celldm(1)=  13.999998  celldm(2)=   0.000000  celldm(3)=   0.000000
     celldm(4)=   0.000000  celldm(5)=   0.000000  celldm(6)=   0.000000

     crystal axes: (cart. coord. in units of alat)
               a(1) = (  -0.369902  -0.000000   0.369902 )
               a(2) = (   0.000000   0.369902   0.369902 )
               a(3) = (  -0.369902   0.369902   0.000000 )

     reciprocal axes: (cart. coord. in units 2 pi/alat)
               b(1) = ( -1.351708 -1.351708  1.351708 )
               b(2) = (  1.351708  1.351708  1.351708 )
               b(3) = ( -1.351708  1.351708 -1.351708 )

     PseudoPot. # 1 for Si read from file:
     C:\Users\muhay\.burai\.pseudopot/Si.pbe-n-rrkjus_psl.1.0.0.UPF
     MD5 check sum: 56671f82560c68743c116fe4c72cdc4c
     Pseudo is Ultrasoft + core correction, Zval =  4.0
     Generated using "atomic" code by A. Dal Corso  v.5.1.2
     Using radial grid of 1141 points,  6 beta functions with:
                l(1) =   0
                l(2) =   0
                l(3) =   1
                l(4) =   1
                l(5) =   2
                l(6) =   2
     Q(r) pseudized with 0 coefficients

     atomic species   valence    mass     pseudopotential
        Si             4.00    28.08550     Si( 1.00)

     24 Sym. Ops. (no inversion) found
          (note: 24 additional sym.ops. were found but ignored
           their fractional translations are incommensurate with FFT grid)

   Cartesian axes

     site n.     atom                  positions (alat units)
         1           Si  tau(   1) = (   0.0000000   0.0000000   0.0000000  )
         2           Si  tau(   2) = (   0.1849512   0.1849512   0.1849512  )

     number of k points=     8  gaussian smearing, width (Ry)=  0.0100
                       cart. coord. in units 2pi/alat
        k(    1) = (   0.0000000   0.0000000   0.0000000), wk =   0.0312500
        k(    2) = (  -0.3379270   0.3379270  -0.3379270), wk =   0.2500000
        k(    3) = (   0.6758540  -0.6758540   0.6758540), wk =   0.1250000
        k(    4) = (  -0.0000000   0.6758540   0.0000000), wk =   0.1875000
        k(    5) = (   1.0137809  -0.3379270   1.0137809), wk =   0.7500000
        k(    6) = (   0.6758540  -0.0000000   0.6758540), wk =   0.3750000
        k(    7) = (   0.0000000  -1.3517079  -0.0000000), wk =   0.0937500
        k(    8) = (  -0.6758540  -1.3517079   0.0000000), wk =   0.1875000

     Initial potential from superposition of free atoms

     starting charge    7.99888, renormalised to    8.00000
     Starting wfc are    8 randomized atomic wfcs

     Writing output data file espresso.save

     Self-consistent Calculation

[...]

     total energy              =     -22.82643626 Ry
     Harris-Foulkes estimate   =     -22.82643631 Ry
     estimated scf accuracy    <       0.00000014 Ry

     iteration #  6     ecut=    30.00 Ry     beta=0.70
     Davidson diagonalization with overlap
     ethr =  1.75E-09,  avg # of iterations =  1.4

     End of self-consistent calculation

[...]

          k = 0.0000-1.3517-0.0000 (   774 PWs)   bands (ev):

[...]

          k =-0.6759-1.3517 0.0000 (   772 PWs)   bands (ev):

    -1.6222  -1.6222   2.2102   2.2102  10.2268  10.2268  10.8524  10.8524

     the Fermi energy is     6.3271 ev

!    total energy              =     -22.82643627 Ry
     Harris-Foulkes estimate   =     -22.82643627 Ry
     estimated scf accuracy    <          3.5E-10 Ry

     The total energy is the sum of the following terms:

     one-electron contribution =       4.95494815 Ry
     hartree contribution      =       1.14880112 Ry
     xc contribution           =     -12.28703438 Ry
     ewald contribution        =     -16.64315079 Ry
     smearing contrib. (-TS)   =      -0.00000038 Ry

     convergence has been achieved in   6 iterations

     Forces acting on atoms (cartesian axes, Ry/au):

     atom    1 type  1   force =     0.00000000    0.00000000    0.00000000
     atom    2 type  1   force =     0.00000000    0.00000000    0.00000000

     Total force =     0.000000     Total SCF correction =     0.000000

     Computing stress (Cartesian axis) and pressure

          total   stress  (Ry/bohr**3)                   (kbar)     P=   -0.12
  -0.00000079   0.00000000  -0.00000000         -0.12      0.00     -0.00
   0.00000000  -0.00000079   0.00000000          0.00     -0.12      0.00
  -0.00000000  -0.00000000  -0.00000079         -0.00     -0.00     -0.12

     Writing output data file espresso.save

     General routines

     Parallel routines

   This run was terminated on:   6:10:37  27Jan2023

   JOB DONE.