     Program PWSCF v.6.4 starts on  9Oct2021 at  1:31:49

     R & G space division:  proc/nbgrp/npool/nimage =       6
     Waiting for input...
     Reading input from standard input

     Current dimensions of program PWSCF are:
     Max number of different atomic species (ntypx) = 10
     Max number of k-points (npk) =  40000
     Max angular momentum in pseudopotentials (lmaxx) =  3
               file Co.rel-pbe-spn-rrkjus_psl.0.3.1.UPF: wavefunction(s)  3P 3P renormalized
               file V.rel-pbe-spnl-rrkjus_psl.1.0.0.UPF: wavefunction(s)  3P 3P 3D 3D renormalized

     Fixed quantization axis for GGA:     0.000000    0.000000    1.000000

     Subspace diagonalization in iterative solution of the eigenvalue problem:
     a serial algorithm will be used

     Title:
     Co2VAl

     bravais-lattice index     =            2
     lattice parameter (alat)  =      10.9074  a.u.
     unit-cell volume          =     324.4146 (a.u.)^3
     number of atoms/cell      =            4
     number of atomic types    =            3
     number of electrons       =        50.00
     number of Kohn-Sham states=           60
     kinetic-energy cutoff     =     300.0000  Ry
     charge density cutoff     =    3000.0000  Ry
     convergence threshold     =      1.0E-08
     mixing beta               =       0.7000
     number of iterations used =            8  plain     mixing
     Exchange-correlation      = PBE ( 1  4  3  4 0 0)
     Noncollinear calculation with spin-orbit

     celldm(1)=  10.907372  celldm(2)=   0.000000  celldm(3)=   0.000000
     celldm(4)=   0.000000  celldm(5)=   0.000000  celldm(6)=   0.000000

     crystal axes: (cart. coord. in units of alat)
               a(1) = (  -0.500000   0.000000   0.500000 )
               a(2) = (   0.000000   0.500000   0.500000 )
               a(3) = (  -0.500000   0.500000   0.000000 )

     reciprocal axes: (cart. coord. in units 2 pi/alat)
               b(1) = ( -1.000000 -1.000000  1.000000 )
               b(2) = (  1.000000  1.000000  1.000000 )
               b(3) = ( -1.000000  1.000000 -1.000000 )

     PseudoPot. # 1 for Co read from file:
     /home/ug2018/mst/18114017/QE_sample/Co2VAl/band_structure/Co.rel-pbe-spn-rrkjus_psl.0.3.1.UPF
     MD5 check sum: 54732febc3943127cc1391ff92b60f64
     Pseudo is Ultrasoft + core correction, Zval = 17.0
     Generated using "atomic" code by A. Dal Corso v.6.2.2
     Using radial grid of 1193 points, 10 beta functions with:
                l(1) =   0
                l(2) =   0
                l(3) =   1
                l(4) =   1
                l(5) =   1
                l(6) =   1
                l(7) =   2
                l(8) =   2
                l(9) =   2
               l(10) =   2
     Q(r) pseudized with 0 coefficients

     PseudoPot. # 2 for V  read from file:
     /home/ug2018/mst/18114017/QE_sample/Co2VAl/band_structure/V.rel-pbe-spnl-rrkjus_psl.1.0.0.UPF
     MD5 check sum: 74207e36087ad0a67e33b0242fb85c12
     Pseudo is Ultrasoft + core correction, Zval = 13.0
     Generated using "atomic" code by A. Dal Corso v.6.2.2
     Using radial grid of 1181 points, 10 beta functions with:
                l(1) =   0
                l(2) =   0
                l(3) =   1
                l(4) =   1
                l(5) =   1
                l(6) =   1
                l(7) =   2
                l(8) =   2
                l(9) =   2
               l(10) =   2
     Q(r) pseudized with 0 coefficients

     PseudoPot. # 3 for Al read from file:
     /home/ug2018/mst/18114017/QE_sample/Co2VAl/band_structure/Al.rel-pbe-nl-rrkjus_psl.1.0.0.UPF
     MD5 check sum: 49f37f8fe9babba23f1e8de5949893df
     Pseudo is Ultrasoft + core correction, Zval =  3.0
     Generated using "atomic" code by A. Dal Corso v.6.3
     Using radial grid of 1135 points,  6 beta functions with:
                l(1) =   0
                l(2) =   0
                l(3) =   1
                l(4) =   1
                l(5) =   1
                l(6) =   1
     Q(r) pseudized with 0 coefficients

     atomic species   valence    mass     pseudopotential
        Co            17.00    58.93319     Co( 1.00)
        V             13.00    50.94150     V ( 1.00)
        Al             3.00    26.98154     Al( 1.00)

     16 Sym. Ops., with inversion, found

                                    s                        frac. trans.

      isym =  1     identity

 Time Reversal            0
 cryst.   s( 1) = (     1          0          0      )
                  (     0          1          0      )
                  (     0          0          1      )

 cart.    s( 1) = (  1.0000000  0.0000000  0.0000000 )
                  (  0.0000000  1.0000000  0.0000000 )
                  (  0.0000000  0.0000000  1.0000000 )

      isym =  2     180 deg rotation - cart. axis [0,0,1]

[...]

      isym =  8      90 deg rotation - cart. axis [0,0,1]

[...]

      isym =  9     inversion

 Time Reversal            0
 cryst.   s( 9) = (    -1          0          0      )
                  (     0         -1          0      )
                  (     0          0         -1      )

 cart.    s( 9) = ( -1.0000000  0.0000000  0.0000000 )
                  (  0.0000000 -1.0000000  0.0000000 )
                  (  0.0000000  0.0000000 -1.0000000 )

      isym = 10     inv. 180 deg rotation - cart. axis [0,0,1]

 Time Reversal            0
 cryst.   s(10) = (     0         -1          1      )
                  (    -1          0          1      )
                  (     0          0          1      )

 cart.    s(10) = (  1.0000000  0.0000000  0.0000000 )
                  (  0.0000000  1.0000000  0.0000000 )
                  (  0.0000000  0.0000000 -1.0000000 )

[...]

      isym = 16     inv.  90 deg rotation - cart. axis [0,0,1]

 Time Reversal            0
 cryst.   s(16) = (    -1          0          1      )
                  (    -1          0          0      )
                  (    -1          1          0      )

 cart.    s(16) = (  0.0000000  1.0000000  0.0000000 )
                  ( -1.0000000  0.0000000  0.0000000 )
                  (  0.0000000  0.0000000 -1.0000000 )

     the magnetic double point group is D_4h(4/mmm) [C_4h (4/m) ]
     using the double point group C_4h (4/m)
     there are 16 classes and  8 irreducible representations
     the character table:

       E     -E    C4    -C4   C2    -C2   C4^3  -C4^3 i     -i    S4^3  -S4^3

G_5+   1.00 -1.00  0.71 -0.71  0.00  0.00  0.71 -0.71  1.00 -1.00  0.71 -0.71
G_6+   1.00 -1.00  0.71 -0.71  0.00  0.00  0.71 -0.71  1.00 -1.00  0.71 -0.71
G_7+   1.00 -1.00 -0.71  0.71  0.00  0.00 -0.71  0.71  1.00 -1.00 -0.71  0.71
G_8+   1.00 -1.00 -0.71  0.71  0.00  0.00 -0.71  0.71  1.00 -1.00 -0.71  0.71
G_5-   1.00 -1.00  0.71 -0.71  0.00  0.00  0.71 -0.71 -1.00  1.00 -0.71  0.71
G_6-   1.00 -1.00  0.71 -0.71  0.00  0.00  0.71 -0.71 -1.00  1.00 -0.71  0.71
G_7-   1.00 -1.00 -0.71  0.71  0.00  0.00 -0.71  0.71 -1.00  1.00  0.71 -0.71
G_8-   1.00 -1.00 -0.71  0.71  0.00  0.00 -0.71  0.71 -1.00  1.00  0.71 -0.71

       s_h   -s_h  S4    -S4

[...]

     imaginary part

       E     -E    C4    -C4   C2    -C2   C4^3  -C4^3 i     -i    S4^3  -S4^3

[...]

       s_h   -s_h  S4    -S4

G_5+   1.00 -1.00 -0.71  0.71
G_6+  -1.00  1.00  0.71 -0.71
G_7+   1.00 -1.00  0.71 -0.71
G_8+  -1.00  1.00 -0.71  0.71
G_5-  -1.00  1.00  0.71 -0.71
G_6-   1.00 -1.00 -0.71  0.71
G_7-  -1.00  1.00 -0.71  0.71
G_8-   1.00 -1.00  0.71 -0.71

     the symmetry operations in each class and the name of the first element:

     E             1
          identity
     -E           -1
          identity E
     C4            4
           90 deg rotation - cart. axis [0,0,1]
     -C4          -4
           90 deg rotation - cart. axis [0,0,1] E
     C2            2
          180 deg rotation - cart. axis [0,0,1]
     -C2          -2
          180 deg rotation - cart. axis [0,0,1] E
     C4^3          3
           90 deg rotation - cart. axis [0,0,-1]
     -C4^3        -3
           90 deg rotation - cart. axis [0,0,-1] E
     i             5
          inversion
     -i           -5
          inversion E
     S4^3          8
          inv.  90 deg rotation - cart. axis [0,0,1]
     -S4^3        -8
          inv.  90 deg rotation - cart. axis [0,0,1] E
     s_h           6
          inv. 180 deg rotation - cart. axis [0,0,1]
     -s_h         -6
          inv. 180 deg rotation - cart. axis [0,0,1] E
     S4            7
          inv.  90 deg rotation - cart. axis [0,0,-1]
     -S4          -7
          inv.  90 deg rotation - cart. axis [0,0,-1] E

   Cartesian axes

     site n.     atom                  positions (alat units)
         1           V   tau(   1) = (   0.0000000   0.0000000   0.0000000  )
         2           Al  tau(   2) = (   0.5000000   0.5000000   0.5000000  )
         3           Co  tau(   3) = (   0.7500000   0.7500000   0.7500000  )
         4           Co  tau(   4) = (   0.2500000   0.2500000   0.2500000  )

   Crystallographic axes

     site n.     atom                  positions (cryst. coord.)
         1           V   tau(   1) = (  0.0000000  0.0000000  0.0000000  )
         2           Al  tau(   2) = ( -0.5000000  1.5000000 -0.5000000  )
         3           Co  tau(   3) = ( -0.7500000  2.2500000 -0.7500000  )
         4           Co  tau(   4) = ( -0.2500000  0.7500000 -0.2500000  )

     number of k points=   163  Marzari-Vanderbilt smearing, width (Ry)=  0.0500
                       cart. coord. in units 2pi/alat
        k(    1) = (   0.0000000   0.0000000   0.0000000), wk =   0.0005787
        k(    2) = (  -0.0833333   0.0833333  -0.0833333), wk =   0.0046296
        k(    3) = (  -0.1666667   0.1666667  -0.1666667), wk =   0.0046296
        k(    4) = (  -0.2500000   0.2500000  -0.2500000), wk =   0.0046296
        k(    5) = (  -0.3333333   0.3333333  -0.3333333), wk =   0.0046296
        k(    6) = (  -0.4166667   0.4166667  -0.4166667), wk =   0.0046296
        k(    7) = (   0.5000000  -0.5000000   0.5000000), wk =   0.0023148
        k(    8) = (   0.0000000   0.1666667   0.0000000), wk =   0.0023148
        k(    9) = (  -0.0833333   0.2500000  -0.0833333), wk =   0.0092593
        k(   10) = (  -0.1666667   0.3333333  -0.1666667), wk =   0.0092593
        k(   11) = (  -0.2500000   0.4166667  -0.2500000), wk =   0.0092593
        k(   12) = (  -0.3333333   0.5000000  -0.3333333), wk =   0.0092593
        k(   13) = (   0.5833333  -0.4166667   0.5833333), wk =   0.0092593
        k(   14) = (   0.5000000  -0.3333333   0.5000000), wk =   0.0092593
        k(   15) = (   0.4166667  -0.2500000   0.4166667), wk =   0.0092593
        k(   16) = (   0.3333333  -0.1666667   0.3333333), wk =   0.0092593
        k(   17) = (   0.2500000  -0.0833333   0.2500000), wk =   0.0092593
        k(   18) = (   0.1666667  -0.0000000   0.1666667), wk =   0.0046296
        k(   19) = (   0.0000000   0.3333333   0.0000000), wk =   0.0023148
        k(   20) = (  -0.0833333   0.4166667  -0.0833333), wk =   0.0092593
        k(   21) = (  -0.1666667   0.5000000  -0.1666667), wk =   0.0092593
        k(   22) = (  -0.2500000   0.5833333  -0.2500000), wk =   0.0092593
        k(   23) = (   0.6666667  -0.3333333   0.6666667), wk =   0.0092593
        k(   24) = (   0.5833333  -0.2500000   0.5833333), wk =   0.0092593
        k(   25) = (   0.5000000  -0.1666667   0.5000000), wk =   0.0092593
        k(   26) = (   0.4166667  -0.0833333   0.4166667), wk =   0.0092593
        k(   27) = (   0.3333333   0.0000000   0.3333333), wk =   0.0046296
        k(   28) = (   0.0000000   0.5000000   0.0000000), wk =   0.0023148
        k(   29) = (  -0.0833333   0.5833333  -0.0833333), wk =   0.0092593
        k(   30) = (  -0.1666667   0.6666667  -0.1666667), wk =   0.0092593
        k(   31) = (   0.7500000  -0.2500000   0.7500000), wk =   0.0092593
        k(   32) = (   0.6666667  -0.1666667   0.6666667), wk =   0.0092593
        k(   33) = (   0.5833333  -0.0833333   0.5833333), wk =   0.0092593
        k(   34) = (   0.5000000   0.0000000   0.5000000), wk =   0.0046296
        k(   35) = (   0.0000000   0.6666667   0.0000000), wk =   0.0023148
        k(   36) = (  -0.0833333   0.7500000  -0.0833333), wk =   0.0092593
        k(   37) = (   0.8333333  -0.1666667   0.8333333), wk =   0.0092593
        k(   38) = (   0.7500000  -0.0833333   0.7500000), wk =   0.0092593
        k(   39) = (   0.6666667  -0.0000000   0.6666667), wk =   0.0046296
        k(   40) = (   0.0000000   0.8333333   0.0000000), wk =   0.0023148
        k(   41) = (   0.9166667  -0.0833333   0.9166667), wk =   0.0092593
        k(   42) = (   0.8333333   0.0000000   0.8333333), wk =   0.0046296
        k(   43) = (   0.0000000  -1.0000000   0.0000000), wk =   0.0011574
        k(   44) = (  -0.1666667   0.3333333   0.0000000), wk =   0.0046296
        k(   45) = (  -0.2500000   0.4166667  -0.0833333), wk =   0.0092593
        k(   46) = (  -0.3333333   0.5000000  -0.1666667), wk =   0.0092593
        k(   47) = (   0.5833333  -0.4166667   0.7500000), wk =   0.0092593
        k(   48) = (   0.5000000  -0.3333333   0.6666667), wk =   0.0092593
        k(   49) = (  -0.1666667   0.5000000   0.0000000), wk =   0.0046296
        k(   50) = (  -0.2500000   0.5833333  -0.0833333), wk =   0.0092593
        k(   51) = (   0.6666667  -0.3333333   0.8333333), wk =   0.0092593
        k(   52) = (   0.5833333  -0.2500000   0.7500000), wk =   0.0092593
        k(   53) = (   0.5000000  -0.1666667   0.6666667), wk =   0.0092593
        k(   54) = (   0.4166667  -0.0833333   0.5833333), wk =   0.0092593
        k(   55) = (   0.3333333   0.0000000   0.5000000), wk =   0.0046296
        k(   56) = (  -0.1666667   0.6666667  -0.0000000), wk =   0.0046296
        k(   57) = (   0.7500000  -0.2500000   0.9166667), wk =   0.0092593
        k(   58) = (   0.6666667  -0.1666667   0.8333333), wk =   0.0092593
        k(   59) = (   0.5833333  -0.0833333   0.7500000), wk =   0.0092593
        k(   60) = (   0.5000000   0.0000000   0.6666667), wk =   0.0046296
[...]
        k(  149) = (  -0.0000000  -0.1666667  -1.0000000), wk =   0.0023148
        k(  150) = (  -0.3333333   1.0000000   0.6666667), wk =   0.0046296
        k(  151) = (   1.0000000   0.6666667  -0.3333333), wk =   0.0046296
        k(  152) = (  -0.2500000   0.9166667   0.5833333), wk =   0.0092593
        k(  153) = (   0.9166667   0.5833333  -0.2500000), wk =   0.0092593
        k(  154) = (  -0.1666667   0.8333333   0.5000000), wk =   0.0046296
        k(  155) = (  -0.1666667   1.0000000   0.6666667), wk =   0.0046296
        k(  156) = (   1.0000000   0.6666667  -0.1666667), wk =   0.0046296
        k(  157) = (  -0.0833333   0.9166667   0.5833333), wk =   0.0092593
        k(  158) = (   0.9166667   0.5833333  -0.0833333), wk =   0.0092593
        k(  159) = (   0.0000000   0.8333333   0.5000000), wk =   0.0046296
        k(  160) = (   0.8333333   0.5000000   0.0000000), wk =   0.0046296
        k(  161) = (  -1.0000000   0.0000000  -0.3333333), wk =   0.0023148
        k(  162) = (   0.0000000  -0.3333333  -1.0000000), wk =   0.0023148
        k(  163) = (  -1.0000000   0.0000000  -0.5000000), wk =   0.0011574

                       cryst. coord.
        k(    1) = (   0.0000000   0.0000000   0.0000000), wk =   0.0005787
        k(    2) = (   0.0000000   0.0000000   0.0833333), wk =   0.0046296
        k(    3) = (   0.0000000   0.0000000   0.1666667), wk =   0.0046296
        k(    4) = (   0.0000000   0.0000000   0.2500000), wk =   0.0046296
        k(    5) = (   0.0000000   0.0000000   0.3333333), wk =   0.0046296
        k(    6) = (   0.0000000   0.0000000   0.4166667), wk =   0.0046296
        k(    7) = (   0.0000000   0.0000000  -0.5000000), wk =   0.0023148
        k(    8) = (   0.0000000   0.0833333   0.0833333), wk =   0.0023148
        k(    9) = (   0.0000000   0.0833333   0.1666667), wk =   0.0092593
        k(   10) = (   0.0000000   0.0833333   0.2500000), wk =   0.0092593
        k(   11) = (   0.0000000   0.0833333   0.3333333), wk =   0.0092593
        k(   12) = (   0.0000000   0.0833333   0.4166667), wk =   0.0092593
        k(   13) = (   0.0000000   0.0833333  -0.5000000), wk =   0.0092593
        k(   14) = (   0.0000000   0.0833333  -0.4166667), wk =   0.0092593
        k(   15) = (   0.0000000   0.0833333  -0.3333333), wk =   0.0092593
        k(   16) = (   0.0000000   0.0833333  -0.2500000), wk =   0.0092593
        k(   17) = (   0.0000000   0.0833333  -0.1666667), wk =   0.0092593
        k(   18) = (   0.0000000   0.0833333  -0.0833333), wk =   0.0046296
        k(   19) = (   0.0000000   0.1666667   0.1666667), wk =   0.0023148
        k(   20) = (   0.0000000   0.1666667   0.2500000), wk =   0.0092593
        k(   21) = (   0.0000000   0.1666667   0.3333333), wk =   0.0092593
        k(   22) = (   0.0000000   0.1666667   0.4166667), wk =   0.0092593
        k(   23) = (   0.0000000   0.1666667  -0.5000000), wk =   0.0092593
        k(   24) = (   0.0000000   0.1666667  -0.4166667), wk =   0.0092593
        k(   25) = (   0.0000000   0.1666667  -0.3333333), wk =   0.0092593
        k(   26) = (   0.0000000   0.1666667  -0.2500000), wk =   0.0092593
        k(   27) = (   0.0000000   0.1666667  -0.1666667), wk =   0.0046296
        k(   28) = (   0.0000000   0.2500000   0.2500000), wk =   0.0023148
        k(   29) = (   0.0000000   0.2500000   0.3333333), wk =   0.0092593
        k(   30) = (   0.0000000   0.2500000   0.4166667), wk =   0.0092593
        k(   31) = (   0.0000000   0.2500000  -0.5000000), wk =   0.0092593
        k(   32) = (   0.0000000   0.2500000  -0.4166667), wk =   0.0092593
        k(   33) = (   0.0000000   0.2500000  -0.3333333), wk =   0.0092593
        k(   34) = (   0.0000000   0.2500000  -0.2500000), wk =   0.0046296
        k(   35) = (   0.0000000   0.3333333   0.3333333), wk =   0.0023148
        k(   36) = (   0.0000000   0.3333333   0.4166667), wk =   0.0092593
        k(   37) = (   0.0000000   0.3333333  -0.5000000), wk =   0.0092593
        k(   38) = (   0.0000000   0.3333333  -0.4166667), wk =   0.0092593
        k(   39) = (   0.0000000   0.3333333  -0.3333333), wk =   0.0046296
        k(   40) = (   0.0000000   0.4166667   0.4166667), wk =   0.0023148
        k(   41) = (   0.0000000   0.4166667  -0.5000000), wk =   0.0092593
        k(   42) = (   0.0000000   0.4166667  -0.4166667), wk =   0.0046296
        k(   43) = (   0.0000000  -0.5000000  -0.5000000), wk =   0.0011574
        k(   44) = (   0.0833333   0.1666667   0.2500000), wk =   0.0046296
        k(   45) = (   0.0833333   0.1666667   0.3333333), wk =   0.0092593
        k(   46) = (   0.0833333   0.1666667   0.4166667), wk =   0.0092593
        k(   47) = (   0.0833333   0.1666667  -0.5000000), wk =   0.0092593
        k(   48) = (   0.0833333   0.1666667  -0.4166667), wk =   0.0092593
        k(   49) = (   0.0833333   0.2500000   0.3333333), wk =   0.0046296
        k(   50) = (   0.0833333   0.2500000   0.4166667), wk =   0.0092593
        k(   51) = (   0.0833333   0.2500000  -0.5000000), wk =   0.0092593
        k(   52) = (   0.0833333   0.2500000  -0.4166667), wk =   0.0092593
        k(   53) = (   0.0833333   0.2500000  -0.3333333), wk =   0.0092593
        k(   54) = (   0.0833333   0.2500000  -0.2500000), wk =   0.0092593
        k(   55) = (   0.0833333   0.2500000  -0.1666667), wk =   0.0046296
        k(   56) = (   0.0833333   0.3333333   0.4166667), wk =   0.0046296
        k(   57) = (   0.0833333   0.3333333  -0.5000000), wk =   0.0092593
        k(   58) = (   0.0833333   0.3333333  -0.4166667), wk =   0.0092593
        k(   59) = (   0.0833333   0.3333333  -0.3333333), wk =   0.0092593
        k(   60) = (   0.0833333   0.3333333  -0.2500000), wk =   0.0046296
[...]
        k(  149) = (  -0.5000000  -0.5833333  -0.0833333), wk =   0.0023148
        k(  150) = (   0.5000000   0.8333333   0.6666667), wk =   0.0046296
        k(  151) = (  -0.6666667   0.1666667  -0.1666667), wk =   0.0046296
        k(  152) = (   0.4166667   0.7500000   0.5833333), wk =   0.0092593
        k(  153) = (  -0.5833333   0.1666667  -0.1666667), wk =   0.0092593
        k(  154) = (   0.3333333   0.6666667   0.5000000), wk =   0.0046296
        k(  155) = (   0.4166667   0.8333333   0.5833333), wk =   0.0046296
        k(  156) = (  -0.5833333   0.2500000  -0.1666667), wk =   0.0046296
        k(  157) = (   0.3333333   0.7500000   0.5000000), wk =   0.0092593
        k(  158) = (  -0.5000000   0.2500000  -0.1666667), wk =   0.0092593
        k(  159) = (   0.2500000   0.6666667   0.4166667), wk =   0.0046296
        k(  160) = (  -0.4166667   0.2500000  -0.1666667), wk =   0.0046296
        k(  161) = (   0.3333333  -0.1666667   0.5000000), wk =   0.0023148
        k(  162) = (  -0.5000000  -0.6666667  -0.1666667), wk =   0.0023148
        k(  163) = (   0.2500000  -0.2500000   0.5000000), wk =   0.0011574

     Initial potential from superposition of free atoms

     starting charge   49.99626, renormalised to   50.00000

     atom number    1 relative position :    0.0000   0.0000   0.0000
     charge :    11.205483
     magnetization :          0.000000    0.000000    3.121046
     magnetization/charge:    0.000000    0.000000    0.278528
     polar coord.: r, theta, phi [deg] :     3.121046    0.000000  360.000000

[...]

     Starting wfcs are   68 randomized atomic wfcs

     Self-consistent Calculation

     iteration #  1     ecut=   300.00 Ry     beta= 0.70
     Davidson diagonalization with overlap
     ethr =  1.00E-02,  avg # of iterations =  3.5

     total energy              =    -733.64384864 Ry
     Harris-Foulkes estimate   =    -733.35056676 Ry
     estimated scf accuracy    <       0.61368675 Ry

     total magnetization       =     0.00     0.00    -2.32 Bohr mag/cell
     absolute magnetization    =     6.60 Bohr mag/cell

[...]

     iteration # 11     ecut=   300.00 Ry     beta= 0.70
     Davidson diagonalization with overlap
     c_bands:  1 eigenvalues not converged
     ethr =  9.08E-07,  avg # of iterations =  4.6

[...]

     iteration # 22     ecut=   300.00 Ry     beta= 0.70
     Davidson diagonalization with overlap
     c_bands:  1 eigenvalues not converged
     c_bands:  1 eigenvalues not converged
     c_bands:  1 eigenvalues not converged
     ethr =  5.20E-11,  avg # of iterations =  7.5

[...]

     total energy              =    -733.85748112 Ry
     Harris-Foulkes estimate   =    -733.85748198 Ry
     estimated scf accuracy    <       0.00000001 Ry

[...]

     iteration # 24     ecut=   300.00 Ry     beta= 0.70
     Davidson diagonalization with overlap
     ethr =  2.35E-11,  avg # of iterations =  5.7

[...]

     atom number    4 relative position :    0.2500   0.2500   0.2500
     charge :    15.714869
     magnetization :         -0.000000    0.000000   -0.532667
     magnetization/charge:   -0.000000    0.000000   -0.033896
     polar coord.: r, theta, phi [deg] :     0.532667  180.000000  360.000000

     End of self-consistent calculation

          k = 0.0000 0.0000 0.0000 ( 28571 PWs)   bands (ev):

   -79.2889 -79.2817 -78.5659 -78.5585 -48.7003 -48.6407 -43.6236 -43.5976
   -43.4166 -43.3903 -41.9511 -41.9216 -41.6796 -41.6498 -41.4754 -41.4453
   -41.3044 -41.2740 -23.0667 -23.0470 -22.2540 -22.2340 -22.2144 -22.1961
     6.3049   6.3336  12.2130  12.2135  12.6095  12.6242  12.6415  12.6885
    12.6891  12.8568  12.8749  12.8894  13.9936  14.0021  14.0116  14.1259
    14.1289  14.1319  15.1751  15.1755  15.2674  15.2814  15.2970  15.5574
    15.5832  15.6050  16.0847  16.0850  16.7987  16.7990  17.1154  17.1157
    21.2369  21.2418  21.2477  21.3559

     occupation numbers
     1.0000   1.0000   1.0000   1.0000   1.0000   1.0000   1.0000   1.0000
     1.0000   1.0000   1.0000   1.0000   1.0000   1.0000   1.0000   1.0000
     1.0000   1.0000   1.0000   1.0000   1.0000   1.0000   1.0000   1.0000
     1.0000   1.0000   1.0000   1.0000   1.0000   1.0000   1.0000   1.0000
     1.0000   1.0000   1.0000   1.0000   1.0017   1.0018   1.0019   1.0039
     1.0039   1.0040   1.0736   1.0735   1.0512   1.0465   1.0408   0.8759
     0.8528   0.8325   0.3299   0.3296   0.0165   0.0165   0.0022   0.0022
     0.0000   0.0000   0.0000   0.0000

          k =-0.0833 0.0833-0.0833 ( 28463 PWs)   bands (ev):

[...]

          k = 0.0000-0.3333-1.0000 ( 28446 PWs)   bands (ev):

[...]

          k =-1.0000 0.0000-0.5000 ( 28440 PWs)   bands (ev):

   -79.2853 -79.2853 -78.5622 -78.5622 -48.7018 -48.6420 -43.6113 -43.6097
   -43.4040 -43.4030 -41.9370 -41.9352 -41.6659 -41.6648 -41.4607 -41.4603
   -41.2892 -41.2875 -23.0703 -23.0504 -22.2599 -22.2372 -22.2173 -22.2021
     9.7981   9.8019  11.1652  11.1860  11.2791  11.2980  12.4876  12.5350
    13.2578  13.3857  13.3973  13.4466  13.7568  13.9467  13.9520  13.9590
    14.0093  14.0379  14.3300  14.4140  14.5487  14.6896  14.9422  14.9703
    15.6461  15.6978  16.3821  16.4411  16.6236  16.6374  16.7267  16.8494
    16.8584  16.8716  17.0536  17.1280

     occupation numbers
     1.0000   1.0000   1.0000   1.0000   1.0000   1.0000   1.0000   1.0000
     1.0000   1.0000   1.0000   1.0000   1.0000   1.0000   1.0000   1.0000
     1.0000   1.0000   1.0000   1.0000   1.0000   1.0000   1.0000   1.0000
     1.0000   1.0000   1.0000   1.0000   1.0000   1.0000   1.0000   1.0000
     1.0000   1.0000   1.0000   1.0000   1.0003   1.0013   1.0013   1.0014
     1.0019   1.0023   1.0114   1.0169   1.0291   1.0464   1.0782   1.0804
     0.7924   0.7394   0.1215   0.0956   0.0417   0.0389   0.0245   0.0123
     0.0117   0.0108   0.0034   0.0021

     the Fermi energy is    16.0113 ev

!    total energy              =    -733.85748174 Ry
     Harris-Foulkes estimate   =    -733.85748146 Ry
     estimated scf accuracy    <          8.0E-09 Ry

     The total energy is the sum of the following terms:

     one-electron contribution =    -423.85538227 Ry
     hartree contribution      =     237.69940278 Ry
     xc contribution           =     -84.39040901 Ry
     ewald contribution        =    -463.31294564 Ry
     smearing contrib. (-TS)   =       0.00185240 Ry

     total magnetization       =     0.00    -0.00    -0.98 Bohr mag/cell
     absolute magnetization    =     1.25 Bohr mag/cell

     convergence has been achieved in  24 iterations

     Writing output data file Co2VAl.save/

     General routines

     Parallel routines

   This run was terminated on:   8:24:41   9Oct2021

   JOB DONE.